(set-logic QF_S)
(declare-fun J () String)
(declare-fun H () String)
(declare-fun K () String)
(declare-fun G () String)
(declare-fun L () String)
(declare-fun N () String)
(declare-fun O () String)
(declare-fun M () String)
(declare-fun Q () String)
(assert (= (str.++  G H "a" G H "b" J K "aab" L L "b" N N "b" O)  (str.++  "a" H G J J "aa" J J "aab" M "aa" M "aab" M M M M "b" Q Q "baa") ))
(check-sat)
(get-model)
